40 780
1 2 73
1 3 79
1 4 56
1 5 4
1 6 48
1 7 112
1 8 35
1 9 60
1 10 98
1 11 113
1 12 74
1 13 72
1 14 110
1 15 63
1 16 44
1 17 61
1 18 105
1 19 118
1 20 48
1 21 110
1 22 100
1 23 102
1 24 84
1 25 59
1 26 20
1 27 119
1 28 76
1 29 56
1 30 41
1 31 5
1 32 102
1 33 101
1 34 18
1 35 70
1 36 50
1 37 56
1 38 108
1 39 98
1 40 48
2 3 53
2 4 5
2 5 80
2 6 35
2 7 112
2 8 91
2 9 33
2 10 12
2 11 112
2 12 82
2 13 15
2 14 6
2 15 84
2 16 90
2 17 28
2 18 9
2 19 80
2 20 109
2 21 0
2 22 5
2 23 69
2 24 107
2 25 57
2 26 118
2 27 99
2 28 4
2 29 76
2 30 30
2 31 30
2 32 76
2 33 102
2 34 25
2 35 32
2 36 90
2 37 32
2 38 112
2 39 63
2 40 25
3 4 79
3 5 53
3 6 66
3 7 71
3 8 33
3 9 8
3 10 58
3 11 50
3 12 103
3 13 94
3 14 24
3 15 25
3 16 107
3 17 64
3 18 25
3 19 92
3 20 78
3 21 47
3 22 39
3 23 5
3 24 43
3 25 18
3 26 39
3 27 117
3 28 96
3 29 4
3 30 34
3 31 50
3 32 96
3 33 57
3 34 113
3 35 16
3 36 99
3 37 1
3 38 51
3 39 1
3 40 27
4 5 33
4 6 118
4 7 32
4 8 31
4 9 66
4 10 86
4 11 74
4 12 93
4 13 89
4 14 81
4 15 67
4 16 1
4 17 65
4 18 79
4 19 33
4 20 49
4 21 33
4 22 11
4 23 11
4 24 77
4 25 118
4 26 117
4 27 55
4 28 101
4 29 36
4 30 86
4 31 81
4 32 73
4 33 29
4 34 107
4 35 113
4 36 3
4 37 94
4 38 38
4 39 46
4 40 92
5 6 24
5 7 65
5 8 41
5 9 1
5 10 92
5 11 80
5 12 107
5 13 61
5 14 109
5 15 25
5 16 35
5 17 10
5 18 73
5 19 68
5 20 28
5 21 16
5 22 34
5 23 41
5 24 0
5 25 56
5 26 30
5 27 78
5 28 1
5 29 78
5 30 65
5 31 36
5 32 118
5 33 61
5 34 53
5 35 0
5 36 3
5 37 117
5 38 7
5 39 32
5 40 88
6 7 53
6 8 99
6 9 94
6 10 108
6 11 10
6 12 93
6 13 23
6 14 43
6 15 39
6 16 94
6 17 101
6 18 12
6 19 108
6 20 35
6 21 98
6 22 82
6 23 90
6 24 31
6 25 48
6 26 79
6 27 89
6 28 18
6 29 114
6 30 14
6 31 118
6 32 102
6 33 3
6 34 26
6 35 44
6 36 101
6 37 12
6 38 65
6 39 69
6 40 54
7 8 74
7 9 110
7 10 106
7 11 49
7 12 100
7 13 3
7 14 22
7 15 5
7 16 11
7 17 19
7 18 99
7 19 98
7 20 39
7 21 11
7 22 0
7 23 69
7 24 100
7 25 43
7 26 65
7 27 90
7 28 85
7 29 80
7 30 109
7 31 13
7 32 79
7 33 42
7 34 23
7 35 2
7 36 79
7 37 75
7 38 28
7 39 49
7 40 83
8 9 82
8 10 109
8 11 87
8 12 114
8 13 90
8 14 80
8 15 117
8 16 78
8 17 7
8 18 111
8 19 97
8 20 45
8 21 105
8 22 10
8 23 103
8 24 31
8 25 116
8 26 22
8 27 64
8 28 17
8 29 1
8 30 69
8 31 54
8 32 86
8 33 21
8 34 74
8 35 105
8 36 11
8 37 15
8 38 77
8 39 99
8 40 83
9 10 108
9 11 117
9 12 107
9 13 39
9 14 73
9 15 32
9 16 18
9 17 67
9 18 67
9 19 73
9 20 62
9 21 25
9 22 54
9 23 56
9 24 46
9 25 101
9 26 26
9 27 66
9 28 1
9 29 88
9 30 75
9 31 85
9 32 30
9 33 75
9 34 54
9 35 111
9 36 118
9 37 38
9 38 33
9 39 98
9 40 75
10 11 5
10 12 1
10 13 56
10 14 109
10 15 71
10 16 98
10 17 103
10 18 77
10 19 20
10 20 77
10 21 92
10 22 3
10 23 106
10 24 56
10 25 40
10 26 64
10 27 79
10 28 113
10 29 37
10 30 54
10 31 60
10 32 3
10 33 28
10 34 73
10 35 47
10 36 17
10 37 44
10 38 70
10 39 1
10 40 103
11 12 117
11 13 49
11 14 30
11 15 38
11 16 83
11 17 46
11 18 86
11 19 97
11 20 49
11 21 22
11 22 76
11 23 87
11 24 102
11 25 53
11 26 71
11 27 44
11 28 18
11 29 60
11 30 57
11 31 29
11 32 95
11 33 105
11 34 26
11 35 113
11 36 21
11 37 108
11 38 58
11 39 111
11 40 23
12 13 119
12 14 53
12 15 34
12 16 19
12 17 76
12 18 69
12 19 87
12 20 5
12 21 80
12 22 33
12 23 32
12 24 91
12 25 118
12 26 15
12 27 49
12 28 98
12 29 54
12 30 108
12 31 27
12 32 115
12 33 35
12 34 93
12 35 35
12 36 4
12 37 10
12 38 24
12 39 101
12 40 24
13 14 63
13 15 56
13 16 77
13 17 2
13 18 6
13 19 112
13 20 105
13 21 53
13 22 88
13 23 63
13 24 81
13 25 90
13 26 92
13 27 44
13 28 114
13 29 113
13 30 68
13 31 114
13 32 22
13 33 7
13 34 42
13 35 31
13 36 94
13 37 115
13 38 14
13 39 48
13 40 45
14 15 116
14 16 111
14 17 100
14 18 7
14 19 94
14 20 88
14 21 93
14 22 89
14 23 80
14 24 103
14 25 18
14 26 12
14 27 24
14 28 26
14 29 103
14 30 67
14 31 48
14 32 29
14 33 107
14 34 73
14 35 10
14 36 1
14 37 17
14 38 59
14 39 105
14 40 92
15 16 89
15 17 117
15 18 38
15 19 106
15 20 29
15 21 32
15 22 62
15 23 7
15 24 49
15 25 0
15 26 89
15 27 60
15 28 86
15 29 72
15 30 36
15 31 74
15 32 76
15 33 31
15 34 29
15 35 26
15 36 11
15 37 110
15 38 29
15 39 69
15 40 59
16 17 6
16 18 63
16 19 99
16 20 23
16 21 110
16 22 103
16 23 105
16 24 47
16 25 50
16 26 39
16 27 15
16 28 10
16 29 84
16 30 72
16 31 93
16 32 18
16 33 5
16 34 55
16 35 82
16 36 8
16 37 78
16 38 83
16 39 0
16 40 117
17 18 99
17 19 7
17 20 117
17 21 26
17 22 108
17 23 90
17 24 44
17 25 80
17 26 32
17 27 85
17 28 64
17 29 33
17 30 84
17 31 84
17 32 111
17 33 2
17 34 78
17 35 79
17 36 65
17 37 107
17 38 22
17 39 3
17 40 47
18 19 0
18 20 96
18 21 87
18 22 24
18 23 102
18 24 68
18 25 107
18 26 69
18 27 30
18 28 85
18 29 51
18 30 69
18 31 64
18 32 6
18 33 47
18 34 62
18 35 13
18 36 26
18 37 101
18 38 78
18 39 9
18 40 84
19 20 47
19 21 2
19 22 15
19 23 51
19 24 43
19 25 81
19 26 105
19 27 41
19 28 45
19 29 101
19 30 74
19 31 15
19 32 73
19 33 2
19 34 36
19 35 115
19 36 40
19 37 3
19 38 24
19 39 15
19 40 24
20 21 91
20 22 48
20 23 85
20 24 21
20 25 108
20 26 58
20 27 50
20 28 9
20 29 5
20 30 22
20 31 29
20 32 110
20 33 105
20 34 93
20 35 76
20 36 10
20 37 66
20 38 4
20 39 98
20 40 25
21 22 6
21 23 60
21 24 117
21 25 103
21 26 99
21 27 40
21 28 30
21 29 13
21 30 48
21 31 101
21 32 75
21 33 47
21 34 107
21 35 46
21 36 114
21 37 59
21 38 87
21 39 71
21 40 93
22 23 70
22 24 58
22 25 25
22 26 112
22 27 101
22 28 88
22 29 82
22 30 7
22 31 31
22 32 29
22 33 69
22 34 46
22 35 33
22 36 5
22 37 49
22 38 98
22 39 34
22 40 44
23 24 8
23 25 100
23 26 73
23 27 97
23 28 82
23 29 114
23 30 61
23 31 117
23 32 57
23 33 47
23 34 51
23 35 105
23 36 76
23 37 72
23 38 53
23 39 116
23 40 91
24 25 8
24 26 52
24 27 105
24 28 116
24 29 9
24 30 31
24 31 5
24 32 20
24 33 56
24 34 94
24 35 102
24 36 68
24 37 37
24 38 33
24 39 97
24 40 9
25 26 118
25 27 60
25 28 93
25 29 30
25 30 105
25 31 10
25 32 24
25 33 115
25 34 74
25 35 48
25 36 85
25 37 43
25 38 27
25 39 37
25 40 25
26 27 107
26 28 117
26 29 86
26 30 53
26 31 100
26 32 93
26 33 33
26 34 40
26 35 116
26 36 85
26 37 44
26 38 51
26 39 17
26 40 99
27 28 111
27 29 86
27 30 14
27 31 35
27 32 100
27 33 59
27 34 115
27 35 60
27 36 94
27 37 76
27 38 31
27 39 74
27 40 23
28 29 108
28 30 41
28 31 5
28 32 35
28 33 47
28 34 29
28 35 86
28 36 28
28 37 95
28 38 75
28 39 32
28 40 31
29 30 89
29 31 107
29 32 58
29 33 33
29 34 27
29 35 86
29 36 67
29 37 109
29 38 57
29 39 95
29 40 113
30 31 95
30 32 92
30 33 9
30 34 106
30 35 79
30 36 106
30 37 91
30 38 116
30 39 59
30 40 113
31 32 25
31 33 40
31 34 107
31 35 7
31 36 22
31 37 96
31 38 66
31 39 112
31 40 11
32 33 41
32 34 31
32 35 6
32 36 82
32 37 25
32 38 11
32 39 51
32 40 89
33 34 50
33 35 50
33 36 108
33 37 13
33 38 58
33 39 63
33 40 5
34 35 22
34 36 40
34 37 78
34 38 35
34 39 43
34 40 55
35 36 1
35 37 112
35 38 77
35 39 117
35 40 45
36 37 63
36 38 64
36 39 26
36 40 40
37 38 85
37 39 53
37 40 18
38 39 80
38 40 55
39 40 98
